Solver command line: ['C:\\Program Files\\IBM\\ILOG\\CPLEX_Studio2211\\cplex\\bin\\x64_win64\\cplex.exe']


Welcome to IBM(R) ILOG(R) CPLEX(R) Interactive Optimizer 22.1.1.0
  with Simplex, Mixed Integer & Barrier Optimizers
5725-A06 5725-A29 5724-Y48 5724-Y49 5724-Y54 5724-Y55 5655-Y21
Copyright IBM Corp. 1988, 2022.  All Rights Reserved.

Type 'help' for a list of available commands.
Type 'help' followed by a command name for more
information on commands.

CPLEX> Logfile 'cplex.log' closed.
Logfile 'C:\Users\wangy\Documents\GitHub\re_optimization\result_site_specific\tmpqu74znle.cplex.log' open.
CPLEX> Problem 'C:\Users\wangy\Documents\GitHub\re_optimization\result_site_specific\tmpk9oq5sx5.pyomo.lp' read.
Read time = 0.34 sec. (9.13 ticks)
CPLEX> Problem name         : C:\Users\wangy\Documents\GitHub\re_optimization\result_site_specific\tmpk9oq5sx5.pyomo.lp
Objective sense      : Minimize
Variables            :   65769  [Nneg: 35068,  Free: 8792,  Binary: 9,
                                 Other: 21900]
Objective nonzeros   :      17
Linear constraints   :   87665  [Less: 46741,  Greater: 5,  Equal: 40919]
  Nonzeros           :  225077
  RHS nonzeros       :    3725

Variables            : Min LB: 0.000000         Max UB: 1.000000       
Objective nonzeros   : Min   : 1.000000         Max   : 1.000000       
Linear constraints   :
  Nonzeros           : Min   : 0.002035063      Max   : 100000.0       
  RHS nonzeros       : Min   : 0.2740000        Max   : 100000.0       
CPLEX> Version identifier: 22.1.1.0 | 2022-11-27 | 9160aff4d
Tried aggregator 3 times.
MIP Presolve eliminated 52838 rows and 32396 columns.
Aggregator did 10278 substitutions.
Reduced MIP has 24549 rows, 23095 columns, and 73504 nonzeros.
Reduced MIP has 5 binaries, 0 generals, 0 SOSs, and 0 indicators.
Presolve time = 0.23 sec. (225.48 ticks)
Found incumbent of value 288437.516092 after 0.33 sec. (322.47 ticks)
Probing time = 0.01 sec. (1.38 ticks)
Tried aggregator 1 time.
Detecting symmetries...
Reduced MIP has 24549 rows, 23095 columns, and 73504 nonzeros.
Reduced MIP has 5 binaries, 0 generals, 0 SOSs, and 0 indicators.
Presolve time = 0.05 sec. (46.99 ticks)
Probing time = 0.00 sec. (1.27 ticks)
MIP emphasis: balance optimality and feasibility.
MIP search method: dynamic search.
Parallel mode: deterministic, using up to 16 threads.
Root relaxation solution time = 1.50 sec. (757.96 ticks)

        Nodes                                         Cuts/
   Node  Left     Objective  IInf  Best Integer    Best Bound    ItCnt     Gap

*     0+    0                       288437.5161    -9841.6222           103.41%
      0     0     9750.2977     1   288437.5161     9750.2977       54   96.62%
*     0+    0                        11354.9679     9750.2977            14.13%
*     0+    0                        10325.3825     9750.2977             5.57%
      0     0        cutoff          10325.3825                    717    0.00%
Elapsed time = 2.36 sec. (1631.02 ticks, tree = 0.01 MB, solutions = 3)

Root node processing (before b&c):
  Real time             =    2.38 sec. (1634.20 ticks)
Parallel b&c, 16 threads:
  Real time             =    0.00 sec. (0.00 ticks)
  Sync time (average)   =    0.00 sec.
  Wait time (average)   =    0.00 sec.
                          ------------
Total (root+branch&cut) =    2.38 sec. (1634.20 ticks)

Solution pool: 3 solutions saved.

MIP - Integer optimal solution:  Objective =  1.0325382493e+04
Solution time =    2.38 sec.  Iterations = 717  Nodes = 0
Deterministic time = 1634.39 ticks  (688.17 ticks/sec)

CPLEX> Incumbent solution written to file 'C:\Users\wangy\Documents\GitHub\re_optimization\result_site_specific\tmpjdo61aoo.cplex.sol'.
CPLEX> 
